!B3LYP def2-tzvpp opt numfreq cpcm
%PAL NPROCS 16 END
%maxcore 2000
* xyzfile 4 5 xyz.xyz 

%mtr
	HessName "Co_sym_D3h_freq.hess"
	modetype normal
	mlist 6
	rstep 10
	lstep 10
	ddnc 0.2
end
