!bp86 def2-svp opt
%PAL NPROCS 4 END
%maxcore 2000
* xyzfile 0 1 benzene.xyz 
