!B3LYP def2-tzvpp opt numfreq cpcm
%PAL NPROCS 16 END
%maxcore 2000
* xyzfile 4 5 xyz.xyz 
