!PBE def2-svp OPT FREQ
%PAL NPROCS 4 END
%maxcore 3000
*xyzfile 0 1 benzene.xyz
