!B3LYP def2-tzvpp opt numfreq cpcm MORead
%moinp "new_orbs.gbw"
%PAL NPROCS 16 END
%maxcore 2000
* xyzfile 4 5 xyz.xyz 
