!B3LYP def2-tzvpp opt numfreq cpcm
*xyzfile 4 5 xyz.xyz
%PAL NPROCS 16 END
%maxcore 3500